Minimize
	value: tt

Subject to
tt + 2000 s_1_1 > 0
tt - t_1_1 - 2000.000000 s_1_1 > -1968.636600
tt + 2000 s_2_1 > 0
tt - t_2_1 - 2000.000000 s_2_1 > -1981.443300
tt + 2000 s_1_2 > 0
tt - t_1_2 - 2000.000000 s_1_2 > -1994.063000
tt + 2000 s_2_2 > 0
tt - t_2_2 - 2000.000000 s_2_2 > -1995.861100
tt + 2000 s_1_3 > 0
tt - t_1_3 - 2000.000000 s_1_3 > -1999.702700
tt + 2000 s_2_3 > 0
tt - t_2_3 - 2000.000000 s_2_3 > -1999.287000
tt + 2000 s_1_4 > 0
tt - t_1_4 - 2030.167410 s_1_4 + 30.167410 s_1_3 > -1999.942000
tt + 2000 s_2_4 > 0
tt - t_2_4 - 2060.334820 s_2_4 + 60.334820 s_2_3 > -1999.511333
s_1_1 + s_2_1  = 1
s_1_2 + s_2_2  = 1
s_1_3 + s_2_3  = 1
s_1_4 + s_2_4  = 1
t_1_1 - t_1_2 + 2000.000000 u_1_1_2 > 5.937000
t_1_2 - t_1_1 - 2000.000000 u_1_1_2 > -1968.636600
t_2_1 - t_2_2 + 2000.000000 u_2_1_2 > 4.138900
t_2_2 - t_2_1 - 2000.000000 u_2_1_2 > -1981.443300
t_1_1 - t_1_3 + 2000.000000 u_1_1_3 > 0.297300
t_1_3 - t_1_1 - 2000.000000 u_1_1_3 > -1968.636600
t_2_1 - t_2_3 + 2000.000000 u_2_1_3 > 0.713000
t_2_3 - t_2_1 - 2000.000000 u_2_1_3 > -1981.443300
t_1_4 - t_1_1 - 2000.000000 s_1_1 > -1964.188947
t_1_4 - t_2_1 - 2000.000000 s_2_1 > -1972.547993
t_2_4 - t_1_1 - 2000.000000 s_1_1 > -1964.188947
t_2_4 - t_2_1 - 2000.000000 s_2_1 > -1972.547993
t_1_2 - t_1_1 + 2000.000000 u_1_2_1 > 31.363400
t_1_1 - t_1_2 - 2000.000000 u_1_2_1 > -1994.063000
t_2_2 - t_2_1 + 2000.000000 u_2_2_1 > 18.556700
t_2_1 - t_2_2 - 2000.000000 u_2_2_1 > -1995.861100
t_1_2 - t_1_3 + 2000.000000 u_1_2_3 > 0.297300
t_1_3 - t_1_2 - 2000.000000 u_1_2_3 > -1994.063000
t_2_2 - t_2_3 + 2000.000000 u_2_2_3 > 0.713000
t_2_3 - t_2_2 - 2000.000000 u_2_2_3 > -1995.861100
t_1_4 - t_1_2 - 2000.000000 s_1_2 > -1989.615347
t_1_4 - t_2_2 - 2000.000000 s_2_2 > -1986.965793
t_2_4 - t_1_2 - 2000.000000 s_1_2 > -1989.615347
t_2_4 - t_2_2 - 2000.000000 s_2_2 > -1986.965793
t_1_3 - t_1_1 + 2000.000000 u_1_3_1 > 31.363400
t_1_1 - t_1_3 - 2000.000000 u_1_3_1 > -1999.702700
t_2_3 - t_2_1 + 2000.000000 u_2_3_1 > 18.556700
t_2_1 - t_2_3 - 2000.000000 u_2_3_1 > -1999.287000
t_1_3 - t_1_2 + 2000.000000 u_1_3_2 > 5.937000
t_1_2 - t_1_3 - 2000.000000 u_1_3_2 > -1999.702700
t_2_3 - t_2_2 + 2000.000000 u_2_3_2 > 4.138900
t_2_2 - t_2_3 - 2000.000000 u_2_3_2 > -1999.287000
t_1_4 - t_1_3 - 2000.000000 s_1_3 > -1995.255047
t_1_4 - t_2_3 - 2000.000000 s_2_3 > -1990.391693
t_2_4 - t_1_3 - 2000.000000 s_1_3 > -1995.255047
t_2_4 - t_2_3 - 2000.000000 s_2_3 > -1990.391693
t_1_4 - t_1_1 - 2000.000000 s_1_1 > -1964.188947
t_1_4 - t_2_1 - 2000.000000 s_2_1 > -1972.547993
t_2_4 - t_1_1 - 2000.000000 s_1_1 > -1964.188947
t_2_4 - t_2_1 - 2000.000000 s_2_1 > -1972.547993
t_1_4 - t_1_2 - 2000.000000 s_1_2 > -1989.615347
t_1_4 - t_2_2 - 2000.000000 s_2_2 > -1986.965793
t_2_4 - t_1_2 - 2000.000000 s_1_2 > -1989.615347
t_2_4 - t_2_2 - 2000.000000 s_2_2 > -1986.965793
t_1_4 - t_1_3 - 2000.000000 s_1_3 > -1995.255047
t_1_4 - t_2_3 - 2000.000000 s_2_3 > -1990.391693
t_2_4 - t_1_3 - 2000.000000 s_1_3 > -1995.255047
t_2_4 - t_2_3 - 2000.000000 s_2_3 > -1990.391693
Binary
s_1_1
s_2_1
s_1_2
s_2_2
s_1_3
s_2_3
s_1_4
s_2_4
u_1_1_2
u_2_1_2
u_1_1_3
u_2_1_3
u_1_2_1
u_2_2_1
u_1_2_3
u_2_2_3
u_1_3_1
u_2_3_1
u_1_3_2
u_2_3_2

End
